20	5
0	4	3	1	4	2
1	3	8	11	15
2	3	6	8	13
3	3	15	11	8
4	2	12	15
5	2	19	18
6	1	7
7	1	9
8	3	19	18	20
9	1	5
10	2	13	6
11	2	14	12
12	2	10	16
13	1	9
14	2	16	17
15	3	19	20	18
16	2	13	6
17	1	10
18	1	21
19	1	21
20	1	21
21	0
0	0	0	0	0	0	0
1	5	4	2	0	0	4
2	2	5	0	0	0	0
3	5	0	5	0	0	0
4	10	0	2	1	4	0
5	3	5	0	0	5	4
6	7	0	0	0	1	0
7	5	1	4	0	5	5
8	9	0	2	3	0	0
9	3	5	0	0	0	2
10	5	1	0	5	2	5
11	2	0	0	0	0	4
12	7	0	5	0	0	0
13	10	2	0	4	0	1
14	3	1	5	0	1	0
15	4	0	1	0	3	1
16	7	3	0	1	1	3
17	4	5	0	0	0	1
18	8	0	3	2	4	0
19	4	0	0	1	2	1
20	4	0	2	3	0	1
21	0	0	0	0	0	0
7	7	6	5	6
